NAME          ClpDefau
ROWS
 N  OBJROW
 L  R_216_0
 L  R_216_1
 L  R_216_2
 L  R_216_3
 L  R_216_4
 L  R_216_5
 L  R_216_6
 L  R_216_7
COLUMNS
    x_0       OBJROW     -8.        
    x_1       OBJROW     -12.          R_216_7   23.         
    x_2       OBJROW     -11.          R_216_1   42.         
    x_2       R_216_2   66.            R_216_6   58.         
    x_3       OBJROW     -47.          R_216_7   97.         
    x_4       OBJROW     -22.       
    x_5       OBJROW     -95.       
    x_6       OBJROW     -86.       
    x_7       OBJROW     -40.       
    x_8       OBJROW     -33.          R_216_5   25.         
    x_8       R_216_7   74.         
    x_9       OBJROW     -78.          R_216_4   67.         
    x_9       R_216_5   35.         
    x_10      OBJROW     -28.          R_216_3   47.         
    x_10      R_216_6   15.         
    x_11      OBJROW     -78.          R_216_0   94.         
    x_11      R_216_3   21.            R_216_6   76.         
    x_11      R_216_7   32.         
    x_12      OBJROW     -5.           R_216_0   5.          
    x_12      R_216_1   79.         
    x_13      OBJROW     -75.          R_216_1   34.         
    x_14      OBJROW     -88.          R_216_1   58.         
    x_15      OBJROW     -21.       
RHS
    RHS       R_216_0   104.           R_216_1   48.         
    RHS       R_216_2   73.            R_216_3   81.         
    RHS       R_216_4   83.            R_216_5   64.         
    RHS       R_216_6   156.           R_216_7   202.        
BOUNDS
 UI BOUND     x_0       100.        
 UI BOUND     x_1       100.        
 UI BOUND     x_2       100.        
 UI BOUND     x_3       100.        
 UI BOUND     x_4       100.        
 UI BOUND     x_5       100.        
 UI BOUND     x_6       100.        
 UI BOUND     x_7       100.        
 UI BOUND     x_8       100.        
 UI BOUND     x_9       100.        
 UI BOUND     x_10      100.        
 UI BOUND     x_11      100.        
 UI BOUND     x_12      100.        
 UI BOUND     x_13      100.        
 UI BOUND     x_14      100.        
 UI BOUND     x_15      100.        
ENDATA
